c Result of efficient AIG-to-CNF conversion using package CNF
p cnf 378 1301
2 3 -289 0
2 3 -4 0
2 3 -274 0
-2 -3 0
-2 4 274 289 0
-3 314 315 316 317 0
3 -317 0
3 -316 0
3 -314 0
3 -315 0
-4 5 249 258 273 0
4 -258 0
4 -273 0
4 -5 0
4 -249 0
-5 6 47 63 86 0
5 -6 0
5 -86 0
5 -63 0
5 -47 0
6 -7 33 34 35 0
-6 7 0
-6 -35 0
-6 -34 0
-6 -33 0
-7 -342 8 0
-7 342 14 0
-7 -342 -12 0
7 342 -14 0
7 -342 -8 12 0
-8 343 9 0
8 -343 0
8 -9 0
-9 344 10 0
9 -344 0
9 -10 0
-10 345 11 0
-10 314 -345 346 0
10 345 -11 0
10 -345 -346 0
10 -314 -345 0
-11 315 347 0
11 -315 0
11 -347 0
-12 343 13 0
12 -343 0
12 -13 0
-13 344 -345 346 0
-13 344 345 347 0
13 -344 0
13 -345 -346 0
13 345 -347 0
14 -15 26 0
-14 15 0
-14 -26 0
-15 343 16 0
-15 -343 21 0
15 -343 -21 0
15 343 -16 0
-16 344 17 0
-16 -344 19 0
16 -344 -19 0
16 344 -17 0
-17 345 18 0
-17 322 -345 354 0
17 345 -18 0
17 -345 -354 0
17 -322 -345 0
-18 323 355 0
18 -323 0
18 -355 0
-19 345 20 0
-19 320 -345 352 0
19 345 -20 0
19 -345 -352 0
19 -320 -345 0
-20 321 353 0
20 -321 0
20 -353 0
-21 344 22 0
-21 -344 24 0
21 -344 -24 0
21 344 -22 0
-22 345 23 0
-22 318 -345 350 0
22 345 -23 0
22 -345 -350 0
22 -318 -345 0
-23 319 351 0
23 -319 0
23 -351 0
-24 345 25 0
-24 316 -345 348 0
24 345 -25 0
24 -345 -348 0
24 -316 -345 0
-25 317 349 0
25 -317 0
25 -349 0
-26 343 27 0
-26 -343 30 0
26 -343 -30 0
26 343 -27 0
-27 344 28 0
-27 -344 29 0
27 -344 -29 0
27 344 -28 0
-28 345 355 0
-28 -345 354 0
28 -345 -354 0
28 345 -355 0
-29 345 353 0
-29 -345 352 0
29 -345 -352 0
29 345 -353 0
-30 344 31 0
-30 -344 32 0
30 -344 -32 0
30 344 -31 0
-31 345 351 0
-31 -345 350 0
31 -345 -350 0
31 345 -351 0
-32 345 349 0
-32 -345 348 0
32 -345 -348 0
32 345 -349 0
-33 323 324 325 0
33 -323 0
33 -325 0
33 -324 0
-34 338 339 340 0
34 -338 0
34 -340 0
34 -339 0
-35 36 38 42 0
35 -36 0
35 -38 0
35 -42 0
-36 336 337 341 37 0
36 -37 0
36 -341 0
36 -336 0
36 -337 0
-37 334 335 0
37 -334 0
37 -335 0
-38 39 41 0
38 -39 0
38 -41 0
-39 333 40 0
39 -333 0
39 -40 0
-40 330 331 332 0
40 -330 0
40 -332 0
40 -331 0
-41 320 321 322 0
41 -320 0
41 -322 0
41 -321 0
-42 43 44 0
42 -43 0
42 -44 0
-43 328 329 0
43 -328 0
43 -329 0
-44 45 46 0
44 -45 0
44 -46 0
-45 326 327 0
45 -326 0
45 -327 0
-46 318 319 0
46 -318 0
46 -319 0
47 342 48 -54 0
-47 54 0
-47 -48 0
-47 -342 0
-48 40 49 50 51 0
48 -51 0
48 -40 0
48 -50 0
48 -49 0
-49 41 46 0
49 -41 0
49 -46 0
-50 336 337 341 34 0
50 -34 0
50 -341 0
50 -336 0
50 -337 0
-51 328 33 45 52 0
51 -328 0
51 -52 0
51 -45 0
51 -33 0
-52 333 53 0
52 -333 0
52 -53 0
-53 329 37 0
53 -329 0
53 -37 0
54 -55 60 0
-54 55 0
-54 -60 0
-55 343 56 0
55 -343 0
55 -56 0
-56 344 57 0
-56 -344 59 0
56 -344 -59 0
56 344 -57 0
-57 345 58 0
-57 315 -345 347 0
57 345 -58 0
57 -345 -347 0
57 -315 -345 0
-58 316 348 0
58 -316 0
58 -348 0
-59 314 345 346 0
59 -314 0
59 -346 0
59 -345 0
-60 343 61 0
60 -343 0
60 -61 0
-61 344 62 0
-61 -344 345 346 0
61 -344 -345 0
61 344 -62 0
61 -344 -346 0
-62 345 348 0
-62 -345 347 0
62 -345 -347 0
62 345 -348 0
-63 -48 75 0
-63 64 75 0
-63 -72 75 0
63 -75 0
63 48 -64 72 0
-64 65 66 67 68 0
64 -68 0
64 -65 0
64 -67 0
64 -66 0
-65 37 39 0
65 -37 0
65 -39 0
-66 320 46 0
66 -320 0
66 -46 0
-67 43 45 0
67 -43 0
67 -45 0
-68 342 343 69 70 0
68 -342 0
68 -70 0
68 -69 0
68 -343 0
-69 -344 10 0
-69 344 24 0
69 344 -24 0
69 -344 -10 0
-70 50 71 0
70 -50 0
70 -71 0
-71 321 322 33 0
71 -33 0
71 -322 0
71 -321 0
-72 342 343 73 0
72 -73 0
72 -343 0
72 -342 0
-73 -344 74 0
-73 344 32 0
73 344 -32 0
73 -344 -74 0
-74 345 347 0
-74 -345 346 0
74 -345 -346 0
74 345 -347 0
-75 -77 80 0
-75 -48 -77 0
-75 48 76 80 0
75 48 -80 0
75 -48 77 0
75 -76 77 0
-76 342 8 0
76 -342 0
76 -8 0
-77 342 40 78 79 0
77 -342 0
77 -79 0
77 -78 0
77 -40 0
-78 328 45 66 0
78 -66 0
78 -45 0
78 -328 0
-79 12 52 70 0
79 -12 0
79 -52 0
79 -70 0
80 -81 84 0
-80 81 0
-80 -84 0
-81 342 82 0
81 -342 0
81 -82 0
-82 343 83 0
82 -343 0
82 -83 0
-83 314 344 345 346 0
83 -346 0
83 -345 0
83 -314 0
83 -344 0
-84 342 85 0
84 -342 0
84 -85 0
-85 343 344 345 346 0
85 -346 0
85 -345 0
85 -343 0
85 -344 0
86 -341 -87 164 0
86 341 164 -171 0
-86 -164 0
-86 341 171 0
-86 -341 87 0
-87 7 88 160 0
-87 7 88 -162 0
87 -7 0
87 -88 0
87 -160 162 0
88 -89 -153 0
88 -89 -145 0
88 342 -89 0
-88 89 0
-88 -342 145 153 0
-89 342 90 103 120 0
89 -120 0
89 -103 0
89 -342 0
89 -90 0
90 343 -91 0
90 -343 -98 0
-90 -343 98 0
-90 343 91 0
91 -344 -92 0
91 344 -95 97 0
-91 -344 92 0
-91 344 -97 0
-91 344 95 0
92 -345 358 -93 0
92 345 359 -93 0
-92 93 0
-92 345 -359 0
-92 -345 -358 0
-93 345 94 0
-93 326 -345 358 0
93 345 -94 0
93 -345 -358 0
93 -326 -345 0
-94 327 359 0
94 -327 0
94 -359 0
-95 345 96 0
-95 328 -345 360 0
95 345 -96 0
95 -345 -360 0
95 -328 -345 0
-96 329 361 0
96 -329 0
96 -361 0
-97 345 361 0
-97 -345 360 0
97 -345 -360 0
97 345 -361 0
98 -344 -99 0
98 344 -100 102 0
-98 -344 99 0
-98 344 -102 0
-98 344 100 0
99 -345 354 -17 0
99 345 355 -17 0
-99 17 0
-99 345 -355 0
-99 -345 -354 0
-100 -345 101 0
-100 325 345 357 0
100 -325 345 0
100 -345 -101 0
100 345 -357 0
-101 324 356 0
101 -324 0
101 -356 0
-102 345 357 0
-102 -345 356 0
102 -345 -356 0
102 345 -357 0
103 -104 113 0
-103 104 0
-103 -113 0
-104 343 105 0
-104 -343 109 0
104 -343 -109 0
104 343 -105 0
-105 344 106 0
-105 -344 108 0
105 -344 -108 0
105 344 -106 0
-106 345 107 0
-106 325 -345 357 0
106 345 -107 0
106 -345 -357 0
106 -325 -345 0
-107 326 358 0
107 -326 0
107 -358 0
-108 345 101 0
-108 323 -345 355 0
108 345 -101 0
108 -345 -355 0
108 -323 -345 0
-109 344 110 0
-109 -344 112 0
109 -344 -112 0
109 344 -110 0
-110 345 111 0
-110 321 -345 353 0
110 345 -111 0
110 -345 -353 0
110 -321 -345 0
-111 322 354 0
111 -322 0
111 -354 0
-112 -345 23 0
-112 320 345 352 0
112 -320 345 0
112 -345 -23 0
112 345 -352 0
-113 343 114 0
-113 -343 117 0
113 -343 -117 0
113 343 -114 0
-114 344 115 0
-114 -344 116 0
114 -344 -116 0
114 344 -115 0
-115 345 358 0
-115 -345 357 0
115 -345 -357 0
115 345 -358 0
-116 345 356 0
-116 -345 355 0
116 -345 -355 0
116 345 -356 0
-117 344 118 0
-117 -344 119 0
117 -344 -119 0
117 344 -118 0
-118 345 354 0
-118 -345 353 0
118 -345 -353 0
118 345 -354 0
-119 345 352 0
-119 -345 351 0
119 -345 -351 0
119 345 -352 0
-120 121 135 138 0
-120 121 135 -142 0
120 -121 0
120 -135 0
120 -138 142 0
-121 122 -132 0
-121 -126 130 0
-121 -126 -132 0
-121 122 130 0
121 -122 126 0
121 -130 132 0
-122 343 123 0
-122 -343 125 0
122 -343 -125 0
122 343 -123 0
-123 -344 106 0
-123 344 124 0
123 344 -124 0
123 -344 -106 0
-124 -345 94 0
-124 328 345 360 0
124 -328 345 0
124 -345 -94 0
124 345 -360 0
-125 344 108 0
-125 -344 110 0
125 -344 -110 0
125 344 -108 0
-126 343 127 0
-126 -343 129 0
126 -343 -129 0
126 343 -127 0
-127 -344 115 0
-127 344 128 0
127 344 -128 0
127 -344 -115 0
-128 345 360 0
-128 -345 359 0
128 -345 -359 0
128 345 -360 0
-129 344 116 0
-129 -344 118 0
129 -344 -118 0
129 344 -116 0
-130 -343 16 0
-130 343 131 0
130 343 -131 0
130 -343 -16 0
-131 344 93 0
-131 -344 100 0
131 -344 -100 0
131 344 -93 0
-132 -343 27 0
-132 343 133 0
132 343 -133 0
132 -343 -27 0
-133 344 134 0
-133 -344 102 0
133 -344 -102 0
133 344 -134 0
-134 345 359 0
-134 -345 358 0
134 -345 -358 0
134 345 -359 0
135 343 -98 0
135 -343 -136 0
-135 -343 136 0
-135 343 98 0
136 -344 -137 0
136 344 -19 29 0
-136 344 19 0
-136 -344 137 0
-136 344 -29 0
137 -345 350 -22 0
137 345 351 -22 0
-137 22 0
-137 345 -351 0
-137 -345 -350 0
-138 343 125 0
-138 -343 139 0
138 -343 -139 0
138 343 -125 0
-139 344 112 0
-139 -344 140 0
139 -344 -140 0
139 344 -112 0
-140 345 141 0
-140 317 -345 349 0
140 345 -141 0
140 -345 -349 0
140 -317 -345 0
-141 318 350 0
141 -318 0
141 -350 0
-142 343 129 0
-142 -343 143 0
142 -343 -143 0
142 343 -129 0
-143 344 119 0
-143 -344 144 0
143 -344 -144 0
143 344 -119 0
-144 345 350 0
-144 -345 349 0
144 -345 -349 0
144 345 -350 0
-145 54 146 151 0
-145 54 -148 151 0
145 -54 0
145 -151 0
145 -146 148 0
-146 -343 83 0
-146 343 147 0
146 343 -147 0
146 -343 -83 0
-147 -344 57 0
-147 344 140 0
147 344 -140 0
147 -344 -57 0
-148 -343 149 0
-148 343 150 0
148 343 -150 0
148 -343 -149 0
-149 344 345 346 0
149 -344 0
149 -346 0
149 -345 0
-150 -344 62 0
-150 344 144 0
150 344 -144 0
150 -344 -62 0
151 343 -152 0
-151 -343 0
-151 152 0
152 -69 73 0
-152 69 0
-152 -73 0
-153 154 157 158 0
-153 154 157 -159 0
153 -154 0
153 -157 0
153 -158 159 0
154 -155 156 0
-154 155 0
-154 -156 0
-155 -343 9 0
-155 343 21 0
155 343 -21 0
155 -343 -9 0
-156 -343 13 0
-156 343 30 0
156 343 -30 0
156 -343 -13 0
-157 -343 152 0
-157 343 136 0
157 343 -136 0
157 -343 -152 0
-158 -343 56 0
-158 343 139 0
158 343 -139 0
158 -343 -56 0
-159 -343 61 0
-159 343 143 0
159 343 -143 0
159 -343 -61 0
-160 -342 82 0
-160 342 161 0
160 342 -161 0
160 -342 -82 0
-161 343 109 0
-161 -343 147 0
161 -343 -147 0
161 343 -109 0
-162 -342 85 0
-162 342 163 0
162 342 -163 0
162 -342 -85 0
-163 343 117 0
-163 -343 150 0
163 -343 -150 0
163 343 -117 0
-164 71 165 170 0
164 -71 0
164 -165 0
164 -170 0
-165 45 166 0
165 -45 0
165 -166 0
-166 167 169 0
166 -167 0
166 -169 0
-167 37 168 0
167 -37 0
167 -168 0
-168 336 337 338 339 0
168 -339 0
168 -338 0
168 -336 0
168 -337 0
-169 340 39 0
169 -340 0
169 -39 0
-170 43 66 0
170 -43 0
170 -66 0
-171 172 201 0
-171 172 224 -235 0
171 -172 0
171 -201 235 0
171 -201 -224 0
-172 -342 173 0
-172 342 191 0
-172 -342 -184 0
172 342 -191 0
172 -342 -173 184 0
-173 343 174 0
-173 -343 179 0
173 -343 -179 0
173 343 -174 0
-174 344 175 0
-174 -344 177 0
174 -344 -177 0
174 344 -175 0
-175 -345 176 0
-175 336 345 368 0
175 -336 345 0
175 -345 -176 0
175 345 -368 0
-176 335 367 0
176 -335 0
176 -367 0
-177 345 178 0
-177 333 -345 365 0
177 345 -178 0
177 -345 -365 0
177 -333 -345 0
-178 334 366 0
178 -334 0
178 -366 0
-179 344 180 0
-179 -344 182 0
179 -344 -182 0
179 344 -180 0
-180 345 181 0
-180 331 -345 363 0
180 345 -181 0
180 -345 -363 0
180 -331 -345 0
-181 332 364 0
181 -332 0
181 -364 0
-182 345 183 0
-182 329 -345 361 0
182 345 -183 0
182 -345 -361 0
182 -329 -345 0
-183 330 362 0
183 -330 0
183 -362 0
-184 343 185 0
-184 -343 188 0
184 -343 -188 0
184 343 -185 0
-185 344 186 0
-185 -344 187 0
185 -344 -187 0
185 344 -186 0
-186 345 368 0
-186 -345 367 0
186 -345 -367 0
186 345 -368 0
-187 345 366 0
-187 -345 365 0
187 -345 -365 0
187 345 -366 0
-188 344 189 0
-188 -344 190 0
188 -344 -190 0
188 344 -189 0
-189 345 364 0
-189 -345 363 0
189 -345 -363 0
189 345 -364 0
-190 345 362 0
-190 -345 361 0
190 -345 -361 0
190 345 -362 0
-191 192 197 0
-191 344 192 0
191 -192 0
191 -344 -197 0
192 -343 -344 -195 0
192 -343 344 -193 0
-192 343 0
-192 -344 195 0
-192 344 193 0
193 -345 -194 0
193 -340 345 372 0
-193 345 -372 0
-193 -345 194 0
-193 340 345 0
194 -339 371 0
-194 339 0
-194 -371 0
195 345 -196 0
195 -337 -345 369 0
-195 345 196 0
-195 -345 -369 0
-195 337 -345 0
196 -338 370 0
-196 338 0
-196 -370 0
197 198 -199 200 0
197 -342 198 200 0
-197 -200 0
-197 -198 0
-197 342 199 0
198 341 -345 373 0
-198 -341 0
-198 345 0
-198 -373 0
-199 345 374 0
199 -345 0
199 -374 0
-200 343 -345 373 0
-200 343 345 374 0
200 -343 0
200 -345 -373 0
200 345 -374 0
-201 343 202 220 0
-201 -343 207 220 0
201 -220 0
201 -343 -207 0
201 343 -202 0
-202 193 203 206 0
-202 345 193 203 0
202 -203 0
202 -193 0
202 -345 -206 0
-203 -345 204 195 0
-203 345 195 205 0
203 -195 0
203 345 -205 0
203 -345 -204 0
204 -340 372 0
-204 340 0
-204 -372 0
205 -341 373 0
-205 341 0
-205 -373 0
206 -342 374 0
-206 342 0
-206 -374 0
-207 174 208 217 0
-207 -185 208 217 0
207 -217 0
207 -208 0
207 -174 185 0
-208 209 -214 0
-208 -210 211 0
-208 -210 -214 0
-208 209 211 0
208 -209 210 0
208 -211 214 0
-209 344 177 0
-209 -344 180 0
209 -344 -180 0
209 344 -177 0
-210 344 187 0
-210 -344 189 0
210 -344 -189 0
210 344 -187 0
-211 344 212 0
-211 -344 213 0
211 -344 -213 0
211 344 -212 0
-212 345 176 0
-212 334 -345 366 0
212 345 -176 0
212 -345 -366 0
212 -334 -345 0
-213 -345 181 0
-213 333 345 365 0
213 -333 345 0
213 -345 -181 0
213 345 -365 0
-214 344 215 0
-214 -344 216 0
214 -344 -216 0
214 344 -215 0
-215 345 367 0
-215 -345 366 0
215 -345 -366 0
215 345 -367 0
-216 345 365 0
-216 -345 364 0
216 -345 -364 0
216 345 -365 0
-217 -344 212 0
-217 344 218 0
-217 -344 -215 0
217 344 -218 0
217 -344 -212 215 0
218 345 -219 0
218 -336 -345 368 0
-218 345 219 0
-218 -345 -368 0
-218 336 -345 0
219 -337 369 0
-219 337 0
-219 -369 0
-220 344 203 222 0
-220 -344 221 222 0
220 -222 0
220 -344 -221 0
220 344 -203 0
-221 175 218 0
-221 -186 218 0
221 -218 0
221 -175 186 0
-222 342 -344 223 0
-222 342 197 223 0
222 -342 0
222 -223 0
222 344 -197 0
223 345 -194 0
223 -338 -345 370 0
-223 345 194 0
-223 -345 -370 0
-223 338 -345 0
-224 225 230 0
-224 225 -232 0
224 -225 0
224 -230 232 0
225 -343 -91 0
225 343 -226 0
-225 343 226 0
-225 -343 91 0
226 -344 -227 0
226 344 -213 216 0
-226 344 213 0
-226 -344 227 0
-226 344 -216 0
227 -345 362 -228 0
227 345 363 -228 0
-227 228 0
-227 345 -363 0
-227 -345 -362 0
-228 345 229 0
-228 330 -345 362 0
228 345 -229 0
228 -345 -362 0
228 -330 -345 0
-229 331 363 0
229 -331 0
229 -363 0
-230 343 211 0
-230 -343 231 0
230 -343 -231 0
230 343 -211 0
-231 -344 95 0
-231 344 228 0
231 344 -228 0
231 -344 -95 0
-232 343 214 0
-232 -343 233 0
232 -343 -233 0
232 343 -214 0
-233 -344 97 0
-233 344 234 0
233 344 -234 0
233 -344 -97 0
-234 345 363 0
-234 -345 362 0
234 -345 -362 0
234 345 -363 0
235 236 240 -245 0
235 -238 240 -245 0
-235 245 0
-235 -240 0
-235 -236 238 0
-236 -343 105 0
-236 343 237 0
236 343 -237 0
236 -343 -105 0
-237 -344 124 0
-237 344 182 0
237 344 -182 0
237 -344 -124 0
-238 -343 114 0
-238 343 239 0
238 343 -239 0
238 -343 -114 0
-239 -344 128 0
-239 344 190 0
239 344 -190 0
239 -344 -128 0
-240 -242 243 0
-240 241 -244 0
-240 -242 -244 0
-240 241 243 0
240 -241 242 0
240 -243 244 0
241 343 -231 0
241 -343 -131 0
-241 -343 131 0
-241 343 231 0
-242 -343 133 0
-242 343 233 0
242 343 -233 0
242 -343 -133 0
-243 -343 123 0
-243 343 179 0
243 343 -179 0
243 -343 -123 0
-244 -343 127 0
-244 343 188 0
244 343 -188 0
244 -343 -127 0
245 -342 246 248 0
245 -342 -247 248 0
-245 342 0
-245 -248 0
-245 -246 247 0
246 -343 -237 0
246 343 -209 0
-246 343 209 0
-246 -343 237 0
-247 343 210 0
-247 -343 239 0
247 -343 -239 0
247 343 -210 0
248 -343 -226 0
248 343 -217 0
-248 343 217 0
-248 -343 226 0
249 -250 253 255 0
249 -251 253 255 0
-249 -255 0
-249 -253 0
-249 250 251 0
250 341 342 -241 0
250 341 -342 -15 0
-250 -341 0
-250 -342 15 0
-250 342 241 0
-251 53 71 168 252 0
251 -252 0
251 -53 0
251 -168 0
251 -71 0
-252 341 78 169 0
-252 76 78 169 0
252 -169 0
252 -78 0
252 -341 -76 0
-253 325 67 254 0
253 -254 0
253 -67 0
253 -325 0
-254 323 324 49 0
254 -49 0
254 -324 0
254 -323 0
-255 166 242 257 0
-255 166 -256 257 0
255 -166 0
255 -257 0
255 -242 256 0
-256 341 342 0
256 -341 0
256 -342 0
257 -341 -12 0
257 -342 -26 0
257 -341 -342 0
-257 341 26 0
-257 342 12 0
-257 341 342 0
-258 -162 262 0
-258 259 262 0
-258 -48 262 0
258 -262 0
258 48 162 -259 0
-259 42 50 65 260 0
259 -260 0
259 -42 0
259 -65 0
259 -50 0
-260 160 261 0
260 -160 0
260 -261 0
-261 33 41 0
261 -33 0
261 -41 0
262 -263 268 269 270 0
-262 263 0
-262 -270 0
-262 -269 0
-262 -268 0
-263 169 264 266 267 0
263 -267 0
263 -169 0
263 -264 0
263 -266 0
-264 243 265 0
-264 -256 265 0
264 -265 0
264 -243 256 0
-265 342 44 261 0
-265 44 138 261 0
265 -261 0
265 -44 0
265 -342 -138 0
266 -341 -342 0
266 -341 -55 0
-266 341 0
-266 342 55 0
-267 43 167 0
267 -43 0
267 -167 0
-268 341 142 0
-268 342 60 0
-268 341 342 0
268 -341 -60 0
268 -342 -142 0
268 -341 -342 0
-269 327 169 244 0
-269 327 169 -256 0
269 -327 0
269 -169 0
269 -244 256 0
-270 66 267 271 272 0
270 -272 0
270 -66 0
270 -271 0
270 -267 0
-271 325 326 0
271 -325 0
271 -326 0
-272 321 322 323 324 0
272 -324 0
272 -323 0
272 -321 0
272 -322 0
273 342 48 -153 0
-273 -342 0
-273 -48 0
-273 153 0
-274 275 277 287 0
-274 -164 275 277 0
274 -277 0
274 -275 0
274 164 -287 0
275 39 -88 253 276 0
-275 -276 0
-275 -39 0
-275 -253 0
-275 88 0
-276 34 36 0
276 -34 0
276 -36 0
277 -279 283 0
277 341 -278 283 0
-277 -283 0
-277 278 279 0
-277 -341 279 0
-278 -342 161 0
-278 342 236 0
278 342 -236 0
278 -342 -161 0
-279 341 49 280 0
-279 49 81 280 0
279 -280 0
279 -49 0
279 -341 -81 0
-280 43 65 281 282 0
280 -282 0
280 -43 0
280 -281 0
280 -65 0
-281 33 168 0
281 -33 0
281 -168 0
-282 340 45 0
282 -340 0
282 -45 0
-283 328 46 284 285 0
283 -328 0
283 -285 0
283 -284 0
283 -46 0
-284 340 45 238 0
-284 340 45 -256 0
284 -340 0
284 -45 0
284 -238 256 0
-285 341 38 286 0
-285 38 84 286 0
285 -286 0
285 -38 0
285 -341 -84 0
-286 342 53 281 0
-286 53 163 281 0
286 -281 0
286 -53 0
286 -342 -163 0
-287 -341 -342 0
-287 341 288 0
-287 -341 157 0
287 341 -288 0
287 -341 342 -157 0
-288 342 248 0
-288 -342 90 0
288 -342 -90 0
288 342 -248 0
-289 290 294 301 308 0
289 -308 0
289 -301 0
289 -290 0
289 -294 0
290 341 -291 0
290 342 -151 -291 0
-290 291 0
-290 -341 151 0
-290 -341 -342 0
291 -225 292 293 0
291 -256 292 293 0
-291 -293 0
-291 -292 0
-291 225 256 0
-292 325 326 -135 0
-292 325 326 342 0
292 -325 0
292 -326 0
292 -342 135 0
-293 327 169 254 267 0
293 -327 0
293 -267 0
293 -254 0
293 -169 0
294 164 -295 299 0
294 164 -296 299 0
-294 -164 0
-294 -299 0
-294 295 296 0
-295 325 165 0
295 -325 0
295 -165 0
-296 170 272 297 0
296 -170 0
296 -272 0
296 -297 0
297 -341 -342 0
297 341 -298 0
297 -341 -158 0
-297 341 298 0
-297 -341 342 158 0
298 342 -173 0
298 -342 -122 0
-298 -342 122 0
-298 342 173 0
299 -341 -342 0
299 341 -300 0
299 -341 -159 0
-299 341 300 0
-299 -341 342 159 0
300 342 -184 0
300 -342 -126 0
-300 -342 126 0
-300 342 184 0
301 164 -303 305 0
301 164 -302 305 0
-301 -164 0
-301 -305 0
-301 302 303 0
302 341 342 -246 0
302 341 -342 -104 0
-302 -341 0
-302 -342 104 0
-302 342 246 0
303 -341 -304 0
-303 341 0
-303 304 0
-304 342 146 0
304 -342 0
304 -146 0
305 341 -306 0
305 -341 -307 0
-305 -341 307 0
-305 341 306 0
306 342 -247 0
306 -342 -113 0
-306 -342 113 0
-306 342 247 0
-307 342 148 0
307 -342 0
307 -148 0
-308 -307 309 0
-308 304 309 0
-308 -48 309 0
308 -309 0
308 48 -304 307 0
309 164 -311 312 0
309 164 -310 312 0
-309 -164 0
-309 -312 0
-309 310 311 0
310 341 -342 -130 0
310 341 342 -230 0
-310 -341 0
-310 -342 130 0
-310 342 230 0
311 -341 -342 0
311 -341 -155 0
-311 341 0
-311 342 155 0
312 -341 -342 0
312 341 -313 0
312 -341 -156 0
-312 341 313 0
-312 -341 342 156 0
313 342 -232 0
313 -342 -132 0
-313 -342 132 0
-313 342 232 0
-378 0
2 0

